
        $ From http://www.csplib.org/Problems/prob009/data/helmut.pdf
        $ Problem number 192
        $ Sequence length : 25
        language ESSENCE' 1.0
        letting sizemaster be 580
        letting sizes be sequence(5,6,11,13,16,17,21,25,34,44,54,68,80,88,100,112,120,135,142,145,170,173,195,215,265)
        